p cnf 302 1008
c weights 1.0 1.0 2.718281828459045 0.36787944117144233 2.718281828459045 0.36787944117144233 2.718281828459045 0.36787944117144233 2.718281828459045 0.36787944117144233 2.718281828459045 0.36787944117144233 2.718281828459045 0.36787944117144233 2.718281828459045 0.36787944117144233 2.718281828459045 0.36787944117144233 2.718281828459045 0.36787944117144233 2.718281828459045 0.36787944117144233 2.718281828459045 0.36787944117144233 1.0 1.0 2.718281828459045 0.36787944117144233 2.718281828459045 0.36787944117144233 2.718281828459045 0.36787944117144233 2.718281828459045 0.36787944117144233 2.718281828459045 0.36787944117144233 2.718281828459045 0.36787944117144233 2.718281828459045 0.36787944117144233 1.0 1.0 2.718281828459045 0.36787944117144233 2.718281828459045 0.36787944117144233 2.718281828459045 0.36787944117144233 2.718281828459045 0.36787944117144233 2.718281828459045 0.36787944117144233 2.718281828459045 0.36787944117144233 2.718281828459045 0.36787944117144233 2.718281828459045 0.36787944117144233 2.718281828459045 0.36787944117144233 2.718281828459045 0.36787944117144233 2.718281828459045 0.36787944117144233 2.718281828459045 0.36787944117144233 2.718281828459045 0.36787944117144233 1.0 1.0 2.718281828459045 0.36787944117144233 2.718281828459045 0.36787944117144233 2.718281828459045 0.36787944117144233 2.718281828459045 0.36787944117144233 2.718281828459045 0.36787944117144233 2.718281828459045 0.36787944117144233 2.718281828459045 0.36787944117144233 2.718281828459045 0.36787944117144233 2.718281828459045 0.36787944117144233 2.718281828459045 0.36787944117144233 2.718281828459045 0.36787944117144233 2.718281828459045 0.36787944117144233 1.0 1.0 2.718281828459045 0.36787944117144233 2.718281828459045 0.36787944117144233 2.718281828459045 0.36787944117144233 2.718281828459045 0.36787944117144233 2.718281828459045 0.36787944117144233 2.718281828459045 0.36787944117144233 2.718281828459045 0.36787944117144233 2.718281828459045 0.36787944117144233 2.718281828459045 0.36787944117144233 2.718281828459045 0.36787944117144233 2.718281828459045 0.36787944117144233 1.0 1.0 2.718281828459045 0.36787944117144233 2.718281828459045 0.36787944117144233 2.718281828459045 0.36787944117144233 2.718281828459045 0.36787944117144233 2.718281828459045 0.36787944117144233 2.718281828459045 0.36787944117144233 2.718281828459045 0.36787944117144233 2.718281828459045 0.36787944117144233 2.718281828459045 0.36787944117144233 1.0 1.0 2.718281828459045 0.36787944117144233 2.718281828459045 0.36787944117144233 2.718281828459045 0.36787944117144233 2.718281828459045 0.36787944117144233 1.0 1.0 2.718281828459045 0.36787944117144233 2.718281828459045 0.36787944117144233 2.718281828459045 0.36787944117144233 2.718281828459045 0.36787944117144233 2.718281828459045 0.36787944117144233 2.718281828459045 0.36787944117144233 2.718281828459045 0.36787944117144233 2.718281828459045 0.36787944117144233 2.718281828459045 0.36787944117144233 2.718281828459045 0.36787944117144233 1.0 1.0 2.718281828459045 0.36787944117144233 2.718281828459045 0.36787944117144233 2.718281828459045 0.36787944117144233 2.718281828459045 0.36787944117144233 2.718281828459045 0.36787944117144233 2.718281828459045 0.36787944117144233 2.718281828459045 0.36787944117144233 2.718281828459045 0.36787944117144233 2.718281828459045 0.36787944117144233 2.718281828459045 0.36787944117144233 2.718281828459045 0.36787944117144233 2.718281828459045 0.36787944117144233 2.718281828459045 0.36787944117144233 1.0 1.0 2.718281828459045 0.36787944117144233 2.718281828459045 0.36787944117144233 2.718281828459045 0.36787944117144233 2.718281828459045 0.36787944117144233 2.718281828459045 0.36787944117144233 2.718281828459045 0.36787944117144233 2.718281828459045 0.36787944117144233 2.718281828459045 0.36787944117144233 2.718281828459045 0.36787944117144233 1.0 1.0 2.718281828459045 0.36787944117144233 2.718281828459045 0.36787944117144233 2.718281828459045 0.36787944117144233 2.718281828459045 0.36787944117144233 2.718281828459045 0.36787944117144233 1.0 1.0 2.718281828459045 0.36787944117144233 2.718281828459045 0.36787944117144233 2.718281828459045 0.36787944117144233 2.718281828459045 0.36787944117144233 2.718281828459045 0.36787944117144233 2.718281828459045 0.36787944117144233 2.718281828459045 0.36787944117144233 1.0 1.0 2.718281828459045 0.36787944117144233 2.718281828459045 0.36787944117144233 2.718281828459045 0.36787944117144233 2.718281828459045 0.36787944117144233 2.718281828459045 0.36787944117144233 2.718281828459045 0.36787944117144233 1.0 1.0 2.718281828459045 0.36787944117144233 2.718281828459045 0.36787944117144233 2.718281828459045 0.36787944117144233 2.718281828459045 0.36787944117144233 1.0 1.0 2.718281828459045 0.36787944117144233 2.718281828459045 0.36787944117144233 2.718281828459045 0.36787944117144233 2.718281828459045 0.36787944117144233 2.718281828459045 0.36787944117144233 2.718281828459045 0.36787944117144233 2.718281828459045 0.36787944117144233 2.718281828459045 0.36787944117144233 2.718281828459045 0.36787944117144233 2.718281828459045 0.36787944117144233 2.718281828459045 0.36787944117144233 1.0 1.0 2.718281828459045 0.36787944117144233 2.718281828459045 0.36787944117144233 2.718281828459045 0.36787944117144233 2.718281828459045 0.36787944117144233 2.718281828459045 0.36787944117144233 2.718281828459045 0.36787944117144233 1.0 1.0 2.718281828459045 0.36787944117144233 2.718281828459045 0.36787944117144233 2.718281828459045 0.36787944117144233 2.718281828459045 0.36787944117144233 2.718281828459045 0.36787944117144233 2.718281828459045 0.36787944117144233 1.0 1.0 2.718281828459045 0.36787944117144233 2.718281828459045 0.36787944117144233 2.718281828459045 0.36787944117144233 2.718281828459045 0.36787944117144233 2.718281828459045 0.36787944117144233 2.718281828459045 0.36787944117144233 2.718281828459045 0.36787944117144233 2.718281828459045 0.36787944117144233 2.718281828459045 0.36787944117144233 1.0 1.0 2.718281828459045 0.36787944117144233 2.718281828459045 0.36787944117144233 2.718281828459045 0.36787944117144233 2.718281828459045 0.36787944117144233 2.718281828459045 0.36787944117144233 2.718281828459045 0.36787944117144233 2.718281828459045 0.36787944117144233 1.0 1.0 2.718281828459045 0.36787944117144233 2.718281828459045 0.36787944117144233 2.718281828459045 0.36787944117144233 2.718281828459045 0.36787944117144233 2.718281828459045 0.36787944117144233 2.718281828459045 0.36787944117144233 2.718281828459045 0.36787944117144233 1.0 1.0 2.718281828459045 0.36787944117144233 2.718281828459045 0.36787944117144233 2.718281828459045 0.36787944117144233 2.718281828459045 0.36787944117144233 2.718281828459045 0.36787944117144233 1.0 1.0 2.718281828459045 0.36787944117144233 2.718281828459045 0.36787944117144233 2.718281828459045 0.36787944117144233 2.718281828459045 0.36787944117144233 1.0 1.0 2.718281828459045 0.36787944117144233 2.718281828459045 0.36787944117144233 2.718281828459045 0.36787944117144233 2.718281828459045 0.36787944117144233 2.718281828459045 0.36787944117144233 2.718281828459045 0.36787944117144233 1.0 1.0 2.718281828459045 0.36787944117144233 2.718281828459045 0.36787944117144233 2.718281828459045 0.36787944117144233 2.718281828459045 0.36787944117144233 1.0 1.0 2.718281828459045 0.36787944117144233 2.718281828459045 0.36787944117144233 2.718281828459045 0.36787944117144233 2.718281828459045 0.36787944117144233 2.718281828459045 0.36787944117144233 1.0 1.0 2.718281828459045 0.36787944117144233 2.718281828459045 0.36787944117144233 2.718281828459045 0.36787944117144233 2.718281828459045 0.36787944117144233 1.0 1.0 2.718281828459045 0.36787944117144233 2.718281828459045 0.36787944117144233 2.718281828459045 0.36787944117144233 2.718281828459045 0.36787944117144233 2.718281828459045 0.36787944117144233 2.718281828459045 0.36787944117144233 2.718281828459045 0.36787944117144233 1.0 1.0 2.718281828459045 0.36787944117144233 2.718281828459045 0.36787944117144233 2.718281828459045 0.36787944117144233 1.0 1.0 2.718281828459045 0.36787944117144233 2.718281828459045 0.36787944117144233 2.718281828459045 0.36787944117144233 1.0 1.0 2.718281828459045 0.36787944117144233 2.718281828459045 0.36787944117144233 1.0 1.0 2.718281828459045 0.36787944117144233 2.718281828459045 0.36787944117144233 2.718281828459045 0.36787944117144233 2.718281828459045 0.36787944117144233 1.0 1.0 2.718281828459045 0.36787944117144233 2.718281828459045 0.36787944117144233 2.718281828459045 0.36787944117144233 2.718281828459045 0.36787944117144233 2.718281828459045 0.36787944117144233 2.718281828459045 0.36787944117144233 2.718281828459045 0.36787944117144233 2.718281828459045 0.36787944117144233 2.718281828459045 0.36787944117144233 2.718281828459045 0.36787944117144233 1.0 1.0 2.718281828459045 0.36787944117144233 2.718281828459045 0.36787944117144233 2.718281828459045 0.36787944117144233 2.718281828459045 0.36787944117144233 1.0 1.0 2.718281828459045 0.36787944117144233 2.718281828459045 0.36787944117144233 1.0 1.0 2.718281828459045 0.36787944117144233 2.718281828459045 0.36787944117144233 2.718281828459045 0.36787944117144233 2.718281828459045 0.36787944117144233 1.0 1.0 2.718281828459045 0.36787944117144233 1.0 1.0 2.718281828459045 0.36787944117144233 2.718281828459045 0.36787944117144233 1.0 1.0 2.718281828459045 0.36787944117144233 2.718281828459045 0.36787944117144233 1.0 1.0 2.718281828459045 0.36787944117144233 1.0 1.0 2.718281828459045 0.36787944117144233 1.0 1.0 2.718281828459045 0.36787944117144233 1.0 1.0 2.718281828459045 0.36787944117144233 1.0 1.0 2.718281828459045 0.36787944117144233 2.718281828459045 0.36787944117144233 1.0 1.0 2.718281828459045 0.36787944117144233 1.0 1.0 2.718281828459045 0.36787944117144233 2.718281828459045 0.36787944117144233 1.0 1.0 2.718281828459045 0.36787944117144233 2.718281828459045 0.36787944117144233 1.0 1.0 2.718281828459045 0.36787944117144233 1.0 1.0 2.718281828459045 0.36787944117144233 1.0 1.0 1.0 1.0
2 1 13 0
2 -1 -13 0
-2 1 -13 0
-2 -1 13 0
3 1 75 0
3 -1 -75 0
-3 1 -75 0
-3 -1 75 0
4 1 110 0
4 -1 -110 0
-4 1 -110 0
-4 -1 110 0
5 1 180 0
5 -1 -180 0
-5 1 -180 0
-5 -1 180 0
6 1 188 0
6 -1 -188 0
-6 1 -188 0
-6 -1 188 0
7 1 206 0
7 -1 -206 0
-7 1 -206 0
-7 -1 206 0
8 1 246 0
8 -1 -246 0
-8 1 -246 0
-8 -1 246 0
9 1 257 0
9 -1 -257 0
-9 1 -257 0
-9 -1 257 0
10 1 270 0
10 -1 -270 0
-10 1 -270 0
-10 -1 270 0
11 1 294 0
11 -1 -294 0
-11 1 -294 0
-11 -1 294 0
12 1 297 0
12 -1 -297 0
-12 1 -297 0
-12 -1 297 0
14 13 60 0
14 -13 -60 0
-14 13 -60 0
-14 -13 60 0
15 13 148 0
15 -13 -148 0
-15 13 -148 0
-15 -13 148 0
16 13 188 0
16 -13 -188 0
-16 13 -188 0
-16 -13 188 0
17 13 278 0
17 -13 -278 0
-17 13 -278 0
-17 -13 278 0
18 13 280 0
18 -13 -280 0
-18 13 -280 0
-18 -13 280 0
19 13 289 0
19 -13 -289 0
-19 13 -289 0
-19 -13 289 0
20 13 294 0
20 -13 -294 0
-20 13 -294 0
-20 -13 294 0
22 21 35 0
22 -21 -35 0
-22 21 -35 0
-22 -21 35 0
23 21 48 0
23 -21 -48 0
-23 21 -48 0
-23 -21 48 0
24 21 86 0
24 -21 -86 0
-24 21 -86 0
-24 -21 86 0
25 21 110 0
25 -21 -110 0
-25 21 -110 0
-25 -21 110 0
26 21 116 0
26 -21 -116 0
-26 21 -116 0
-26 -21 116 0
27 21 180 0
27 -21 -180 0
-27 21 -180 0
-27 -21 180 0
28 21 206 0
28 -21 -206 0
-28 21 -206 0
-28 -21 206 0
29 21 211 0
29 -21 -211 0
-29 21 -211 0
-29 -21 211 0
30 21 234 0
30 -21 -234 0
-30 21 -234 0
-30 -21 234 0
31 21 262 0
31 -21 -262 0
-31 21 -262 0
-31 -21 262 0
32 21 278 0
32 -21 -278 0
-32 21 -278 0
-32 -21 278 0
33 21 297 0
33 -21 -297 0
-33 21 -297 0
-33 -21 297 0
34 21 301 0
34 -21 -301 0
-34 21 -301 0
-34 -21 301 0
36 35 48 0
36 -35 -48 0
-36 35 -48 0
-36 -35 48 0
37 35 86 0
37 -35 -86 0
-37 35 -86 0
-37 -35 86 0
38 35 100 0
38 -35 -100 0
-38 35 -100 0
-38 -35 100 0
39 35 155 0
39 -35 -155 0
-39 35 -155 0
-39 -35 155 0
40 35 180 0
40 -35 -180 0
-40 35 -180 0
-40 -35 180 0
41 35 188 0
41 -35 -188 0
-41 35 -188 0
-41 -35 188 0
42 35 257 0
42 -35 -257 0
-42 35 -257 0
-42 -35 257 0
43 35 262 0
43 -35 -262 0
-43 35 -262 0
-43 -35 262 0
44 35 265 0
44 -35 -265 0
-44 35 -265 0
-44 -35 265 0
45 35 278 0
45 -35 -278 0
-45 35 -278 0
-45 -35 278 0
46 35 291 0
46 -35 -291 0
-46 35 -291 0
-46 -35 291 0
47 35 294 0
47 -35 -294 0
-47 35 -294 0
-47 -35 294 0
49 48 60 0
49 -48 -60 0
-49 48 -60 0
-49 -48 60 0
50 48 70 0
50 -48 -70 0
-50 48 -70 0
-50 -48 70 0
51 48 75 0
51 -48 -75 0
-51 48 -75 0
-51 -48 75 0
52 48 100 0
52 -48 -100 0
-52 48 -100 0
-52 -48 100 0
53 48 188 0
53 -48 -188 0
-53 48 -188 0
-53 -48 188 0
54 48 199 0
54 -48 -199 0
-54 48 -199 0
-54 -48 199 0
55 48 257 0
55 -48 -257 0
-55 48 -257 0
-55 -48 257 0
56 48 262 0
56 -48 -262 0
-56 48 -262 0
-56 -48 262 0
57 48 284 0
57 -48 -284 0
-57 48 -284 0
-57 -48 284 0
58 48 289 0
58 -48 -289 0
-58 48 -289 0
-58 -48 289 0
59 48 294 0
59 -48 -294 0
-59 48 -294 0
-59 -48 294 0
61 60 131 0
61 -60 -131 0
-61 60 -131 0
-61 -60 131 0
62 60 136 0
62 -60 -136 0
-62 60 -136 0
-62 -60 136 0
63 60 188 0
63 -60 -188 0
-63 60 -188 0
-63 -60 188 0
64 60 206 0
64 -60 -206 0
-64 60 -206 0
-64 -60 206 0
65 60 230 0
65 -60 -230 0
-65 60 -230 0
-65 -60 230 0
66 60 282 0
66 -60 -282 0
-66 60 -282 0
-66 -60 282 0
67 60 299 0
67 -60 -299 0
-67 60 -299 0
-67 -60 299 0
68 60 301 0
68 -60 -301 0
-68 60 -301 0
-68 -60 301 0
69 60 302 0
69 -60 -302 0
-69 60 -302 0
-69 -60 302 0
71 70 155 0
71 -70 -155 0
-71 70 -155 0
-71 -70 155 0
72 70 230 0
72 -70 -230 0
-72 70 -230 0
-72 -70 230 0
73 70 265 0
73 -70 -265 0
-73 70 -265 0
-73 -70 265 0
74 70 286 0
74 -70 -286 0
-74 70 -286 0
-74 -70 286 0
76 75 100 0
76 -75 -100 0
-76 75 -100 0
-76 -75 100 0
77 75 155 0
77 -75 -155 0
-77 75 -155 0
-77 -75 155 0
78 75 188 0
78 -75 -188 0
-78 75 -188 0
-78 -75 188 0
79 75 199 0
79 -75 -199 0
-79 75 -199 0
-79 -75 199 0
80 75 206 0
80 -75 -206 0
-80 75 -206 0
-80 -75 206 0
81 75 238 0
81 -75 -238 0
-81 75 -238 0
-81 -75 238 0
82 75 286 0
82 -75 -286 0
-82 75 -286 0
-82 -75 286 0
83 75 291 0
83 -75 -291 0
-83 75 -291 0
-83 -75 291 0
84 75 297 0
84 -75 -297 0
-84 75 -297 0
-84 -75 297 0
85 75 301 0
85 -75 -301 0
-85 75 -301 0
-85 -75 301 0
87 86 100 0
87 -86 -100 0
-87 86 -100 0
-87 -86 100 0
88 86 116 0
88 -86 -116 0
-88 86 -116 0
-88 -86 116 0
89 86 124 0
89 -86 -124 0
-89 86 -124 0
-89 -86 124 0
90 86 148 0
90 -86 -148 0
-90 86 -148 0
-90 -86 148 0
91 86 180 0
91 -86 -180 0
-91 86 -180 0
-91 -86 180 0
92 86 206 0
92 -86 -206 0
-92 86 -206 0
-92 -86 206 0
93 86 222 0
93 -86 -222 0
-93 86 -222 0
-93 -86 222 0
94 86 234 0
94 -86 -234 0
-94 86 -234 0
-94 -86 234 0
95 86 246 0
95 -86 -246 0
-95 86 -246 0
-95 -86 246 0
96 86 272 0
96 -86 -272 0
-96 86 -272 0
-96 -86 272 0
97 86 275 0
97 -86 -275 0
-97 86 -275 0
-97 -86 275 0
98 86 297 0
98 -86 -297 0
-98 86 -297 0
-98 -86 297 0
99 86 299 0
99 -86 -299 0
-99 86 -299 0
-99 -86 299 0
101 100 110 0
101 -100 -110 0
-101 100 -110 0
-101 -100 110 0
102 100 162 0
102 -100 -162 0
-102 100 -162 0
-102 -100 162 0
103 100 246 0
103 -100 -246 0
-103 100 -246 0
-103 -100 246 0
104 100 275 0
104 -100 -275 0
-104 100 -275 0
-104 -100 275 0
105 100 278 0
105 -100 -278 0
-105 100 -278 0
-105 -100 278 0
106 100 284 0
106 -100 -284 0
-106 100 -284 0
-106 -100 284 0
107 100 289 0
107 -100 -289 0
-107 100 -289 0
-107 -100 289 0
108 100 297 0
108 -100 -297 0
-108 100 -297 0
-108 -100 297 0
109 100 299 0
109 -100 -299 0
-109 100 -299 0
-109 -100 299 0
111 110 116 0
111 -110 -116 0
-111 110 -116 0
-111 -110 116 0
112 110 155 0
112 -110 -155 0
-112 110 -155 0
-112 -110 155 0
113 110 162 0
113 -110 -162 0
-113 110 -162 0
-113 -110 162 0
114 110 206 0
114 -110 -206 0
-114 110 -206 0
-114 -110 206 0
115 110 280 0
115 -110 -280 0
-115 110 -280 0
-115 -110 280 0
117 116 124 0
117 -116 -124 0
-117 116 -124 0
-117 -116 124 0
118 116 180 0
118 -116 -180 0
-118 116 -180 0
-118 -116 180 0
119 116 199 0
119 -116 -199 0
-119 116 -199 0
-119 -116 199 0
120 116 234 0
120 -116 -234 0
-120 116 -234 0
-120 -116 234 0
121 116 265 0
121 -116 -265 0
-121 116 -265 0
-121 -116 265 0
122 116 284 0
122 -116 -284 0
-122 116 -284 0
-122 -116 284 0
123 116 286 0
123 -116 -286 0
-123 116 -286 0
-123 -116 286 0
125 124 206 0
125 -124 -206 0
-125 124 -206 0
-125 -124 206 0
126 124 238 0
126 -124 -238 0
-126 124 -238 0
-126 -124 238 0
127 124 275 0
127 -124 -275 0
-127 124 -275 0
-127 -124 275 0
128 124 286 0
128 -124 -286 0
-128 124 -286 0
-128 -124 286 0
129 124 297 0
129 -124 -297 0
-129 124 -297 0
-129 -124 297 0
130 124 299 0
130 -124 -299 0
-130 124 -299 0
-130 -124 299 0
132 131 230 0
132 -131 -230 0
-132 131 -230 0
-132 -131 230 0
133 131 272 0
133 -131 -272 0
-133 131 -272 0
-133 -131 272 0
134 131 275 0
134 -131 -275 0
-134 131 -275 0
-134 -131 275 0
135 131 278 0
135 -131 -278 0
-135 131 -278 0
-135 -131 278 0
137 136 162 0
137 -136 -162 0
-137 136 -162 0
-137 -136 162 0
138 136 172 0
138 -136 -172 0
-138 136 -172 0
-138 -136 172 0
139 136 180 0
139 -136 -180 0
-139 136 -180 0
-139 -136 180 0
140 136 188 0
140 -136 -188 0
-140 136 -188 0
-140 -136 188 0
141 136 206 0
141 -136 -206 0
-141 136 -206 0
-141 -136 206 0
142 136 222 0
142 -136 -222 0
-142 136 -222 0
-142 -136 222 0
143 136 230 0
143 -136 -230 0
-143 136 -230 0
-143 -136 230 0
144 136 257 0
144 -136 -257 0
-144 136 -257 0
-144 -136 257 0
145 136 262 0
145 -136 -262 0
-145 136 -262 0
-145 -136 262 0
146 136 280 0
146 -136 -280 0
-146 136 -280 0
-146 -136 280 0
147 136 299 0
147 -136 -299 0
-147 136 -299 0
-147 -136 299 0
149 148 206 0
149 -148 -206 0
-149 148 -206 0
-149 -148 206 0
150 148 257 0
150 -148 -257 0
-150 148 -257 0
-150 -148 257 0
151 148 270 0
151 -148 -270 0
-151 148 -270 0
-151 -148 270 0
152 148 294 0
152 -148 -294 0
-152 148 -294 0
-152 -148 294 0
153 148 299 0
153 -148 -299 0
-153 148 -299 0
-153 -148 299 0
154 148 301 0
154 -148 -301 0
-154 148 -301 0
-154 -148 301 0
156 155 162 0
156 -155 -162 0
-156 155 -162 0
-156 -155 162 0
157 155 199 0
157 -155 -199 0
-157 155 -199 0
-157 -155 199 0
158 155 230 0
158 -155 -230 0
-158 155 -230 0
-158 -155 230 0
159 155 275 0
159 -155 -275 0
-159 155 -275 0
-159 -155 275 0
160 155 284 0
160 -155 -284 0
-160 155 -284 0
-160 -155 284 0
161 155 299 0
161 -155 -299 0
-161 155 -299 0
-161 -155 299 0
163 162 194 0
163 -162 -194 0
-163 162 -194 0
-163 -162 194 0
164 162 222 0
164 -162 -222 0
-164 162 -222 0
-164 -162 222 0
165 162 265 0
165 -162 -265 0
-165 162 -265 0
-165 -162 265 0
166 162 278 0
166 -162 -278 0
-166 162 -278 0
-166 -162 278 0
167 162 280 0
167 -162 -280 0
-167 162 -280 0
-167 -162 280 0
168 162 286 0
168 -162 -286 0
-168 162 -286 0
-168 -162 286 0
169 162 289 0
169 -162 -289 0
-169 162 -289 0
-169 -162 289 0
170 162 299 0
170 -162 -299 0
-170 162 -299 0
-170 -162 299 0
171 162 302 0
171 -162 -302 0
-171 162 -302 0
-171 -162 302 0
173 172 188 0
173 -172 -188 0
-173 172 -188 0
-173 -172 188 0
174 172 194 0
174 -172 -194 0
-174 172 -194 0
-174 -172 194 0
175 172 265 0
175 -172 -265 0
-175 172 -265 0
-175 -172 265 0
176 172 272 0
176 -172 -272 0
-176 172 -272 0
-176 -172 272 0
177 172 275 0
177 -172 -275 0
-177 172 -275 0
-177 -172 275 0
178 172 294 0
178 -172 -294 0
-178 172 -294 0
-178 -172 294 0
179 172 301 0
179 -172 -301 0
-179 172 -301 0
-179 -172 301 0
181 180 222 0
181 -180 -222 0
-181 180 -222 0
-181 -180 222 0
182 180 241 0
182 -180 -241 0
-182 180 -241 0
-182 -180 241 0
183 180 246 0
183 -180 -246 0
-183 180 -246 0
-183 -180 246 0
184 180 272 0
184 -180 -272 0
-184 180 -272 0
-184 -180 272 0
185 180 289 0
185 -180 -289 0
-185 180 -289 0
-185 -180 289 0
186 180 297 0
186 -180 -297 0
-186 180 -297 0
-186 -180 297 0
187 180 299 0
187 -180 -299 0
-187 180 -299 0
-187 -180 299 0
189 188 238 0
189 -188 -238 0
-189 188 -238 0
-189 -188 238 0
190 188 289 0
190 -188 -289 0
-190 188 -289 0
-190 -188 289 0
191 188 294 0
191 -188 -294 0
-191 188 -294 0
-191 -188 294 0
192 188 297 0
192 -188 -297 0
-192 188 -297 0
-192 -188 297 0
193 188 299 0
193 -188 -299 0
-193 188 -299 0
-193 -188 299 0
195 194 199 0
195 -194 -199 0
-195 194 -199 0
-195 -194 199 0
196 194 222 0
196 -194 -222 0
-196 194 -222 0
-196 -194 222 0
197 194 270 0
197 -194 -270 0
-197 194 -270 0
-197 -194 270 0
198 194 275 0
198 -194 -275 0
-198 194 -275 0
-198 -194 275 0
200 199 241 0
200 -199 -241 0
-200 199 -241 0
-200 -199 241 0
201 199 246 0
201 -199 -246 0
-201 199 -246 0
-201 -199 246 0
202 199 257 0
202 -199 -257 0
-202 199 -257 0
-202 -199 257 0
203 199 262 0
203 -199 -262 0
-203 199 -262 0
-203 -199 262 0
204 199 265 0
204 -199 -265 0
-204 199 -265 0
-204 -199 265 0
205 199 270 0
205 -199 -270 0
-205 199 -270 0
-205 -199 270 0
207 206 270 0
207 -206 -270 0
-207 206 -270 0
-207 -206 270 0
208 206 291 0
208 -206 -291 0
-208 206 -291 0
-208 -206 291 0
209 206 294 0
209 -206 -294 0
-209 206 -294 0
-209 -206 294 0
210 206 301 0
210 -206 -301 0
-210 206 -301 0
-210 -206 301 0
212 211 257 0
212 -211 -257 0
-212 211 -257 0
-212 -211 257 0
213 211 262 0
213 -211 -262 0
-213 211 -262 0
-213 -211 262 0
214 211 278 0
214 -211 -278 0
-214 211 -278 0
-214 -211 278 0
215 211 280 0
215 -211 -280 0
-215 211 -280 0
-215 -211 280 0
216 211 301 0
216 -211 -301 0
-216 211 -301 0
-216 -211 301 0
218 217 246 0
218 -217 -246 0
-218 217 -246 0
-218 -217 246 0
219 217 265 0
219 -217 -265 0
-219 217 -265 0
-219 -217 265 0
220 217 299 0
220 -217 -299 0
-220 217 -299 0
-220 -217 299 0
221 217 301 0
221 -217 -301 0
-221 217 -301 0
-221 -217 301 0
223 222 230 0
223 -222 -230 0
-223 222 -230 0
-223 -222 230 0
224 222 257 0
224 -222 -257 0
-224 222 -257 0
-224 -222 257 0
225 222 272 0
225 -222 -272 0
-225 222 -272 0
-225 -222 272 0
226 222 278 0
226 -222 -278 0
-226 222 -278 0
-226 -222 278 0
227 222 282 0
227 -222 -282 0
-227 222 -282 0
-227 -222 282 0
228 222 289 0
228 -222 -289 0
-228 222 -289 0
-228 -222 289 0
229 222 294 0
229 -222 -294 0
-229 222 -294 0
-229 -222 294 0
231 230 246 0
231 -230 -246 0
-231 230 -246 0
-231 -230 246 0
232 230 270 0
232 -230 -270 0
-232 230 -270 0
-232 -230 270 0
233 230 294 0
233 -230 -294 0
-233 230 -294 0
-233 -230 294 0
235 234 246 0
235 -234 -246 0
-235 234 -246 0
-235 -234 246 0
236 234 270 0
236 -234 -270 0
-236 234 -270 0
-236 -234 270 0
237 234 291 0
237 -234 -291 0
-237 234 -291 0
-237 -234 291 0
239 238 282 0
239 -238 -282 0
-239 238 -282 0
-239 -238 282 0
240 238 284 0
240 -238 -284 0
-240 238 -284 0
-240 -238 284 0
242 241 265 0
242 -241 -265 0
-242 241 -265 0
-242 -241 265 0
243 241 270 0
243 -241 -270 0
-243 241 -270 0
-243 -241 270 0
244 241 286 0
244 -241 -286 0
-244 241 -286 0
-244 -241 286 0
245 241 301 0
245 -241 -301 0
-245 241 -301 0
-245 -241 301 0
247 246 257 0
247 -246 -257 0
-247 246 -257 0
-247 -246 257 0
248 246 262 0
248 -246 -262 0
-248 246 -262 0
-248 -246 262 0
249 246 272 0
249 -246 -272 0
-249 246 -272 0
-249 -246 272 0
250 246 275 0
250 -246 -275 0
-250 246 -275 0
-250 -246 275 0
251 246 282 0
251 -246 -282 0
-251 246 -282 0
-251 -246 282 0
252 246 286 0
252 -246 -286 0
-252 246 -286 0
-252 -246 286 0
253 246 289 0
253 -246 -289 0
-253 246 -289 0
-253 -246 289 0
254 246 294 0
254 -246 -294 0
-254 246 -294 0
-254 -246 294 0
255 246 297 0
255 -246 -297 0
-255 246 -297 0
-255 -246 297 0
256 246 299 0
256 -246 -299 0
-256 246 -299 0
-256 -246 299 0
258 257 265 0
258 -257 -265 0
-258 257 -265 0
-258 -257 265 0
259 257 270 0
259 -257 -270 0
-259 257 -270 0
-259 -257 270 0
260 257 278 0
260 -257 -278 0
-260 257 -278 0
-260 -257 278 0
261 257 289 0
261 -257 -289 0
-261 257 -289 0
-261 -257 289 0
263 262 270 0
263 -262 -270 0
-263 262 -270 0
-263 -262 270 0
264 262 291 0
264 -262 -291 0
-264 262 -291 0
-264 -262 291 0
266 265 278 0
266 -265 -278 0
-266 265 -278 0
-266 -265 278 0
267 265 280 0
267 -265 -280 0
-267 265 -280 0
-267 -265 280 0
268 265 286 0
268 -265 -286 0
-268 265 -286 0
-268 -265 286 0
269 265 289 0
269 -265 -289 0
-269 265 -289 0
-269 -265 289 0
271 270 282 0
271 -270 -282 0
-271 270 -282 0
-271 -270 282 0
273 272 282 0
273 -272 -282 0
-273 272 -282 0
-273 -272 282 0
274 272 289 0
274 -272 -289 0
-274 272 -289 0
-274 -272 289 0
276 275 289 0
276 -275 -289 0
-276 275 -289 0
-276 -275 289 0
277 275 291 0
277 -275 -291 0
-277 275 -291 0
-277 -275 291 0
279 278 297 0
279 -278 -297 0
-279 278 -297 0
-279 -278 297 0
281 280 297 0
281 -280 -297 0
-281 280 -297 0
-281 -280 297 0
283 282 284 0
283 -282 -284 0
-283 282 -284 0
-283 -282 284 0
285 284 291 0
285 -284 -291 0
-285 284 -291 0
-285 -284 291 0
287 286 297 0
287 -286 -297 0
-287 286 -297 0
-287 -286 297 0
288 286 301 0
288 -286 -301 0
-288 286 -301 0
-288 -286 301 0
290 289 291 0
290 -289 -291 0
-290 289 -291 0
-290 -289 291 0
292 291 294 0
292 -291 -294 0
-292 291 -294 0
-292 -291 294 0
293 291 299 0
293 -291 -299 0
-293 291 -299 0
-293 -291 299 0
295 294 299 0
295 -294 -299 0
-295 294 -299 0
-295 -294 299 0
296 294 301 0
296 -294 -301 0
-296 294 -301 0
-296 -294 301 0
298 297 301 0
298 -297 -301 0
-298 297 -301 0
-298 -297 301 0
300 299 301 0
300 -299 -301 0
-300 299 -301 0
-300 -299 301 0
